 &control
    calculation = 'vc-relax'
    restart_mode='from_scratch',
    wf_collect=.true.
    prefix='MoSSe_ref',
    tstress = .true.
    tprnfor = .true.
    etot_conv_thr=1d-6, 
    forc_conv_thr=1.d-5
    pseudo_dir = '/cyclonas_users/asgouros/projects/PhononQE/qe_psextra//',
    outdir='/scratch/asgouros//MoSSe_biaxial_ref/'
 /
 &system
    ibrav=  0, celldm(1) =6.0336772, nat=  3, ntyp= 3,
    ecutwfc =80.0, ecutrho=400.0
    occupations='fixed'
 /
 &electrons
    diagonalization='david'
    electron_maxstep = 100
    mixing_mode = 'plain'
    mixing_beta = 0.7
    conv_thr = 1d-10
 /
 &ions
 /
 &cell
    cell_dofree='2Dxy'
 /
ATOMIC_SPECIES
 S  32.065   S.pz-hgh.UPF
 Mo  95.94   Mo.pz-hgh.UPF
 Se  78.96   Se.pz-hgh.UPF
CELL_PARAMETERS {alat}
   1.020630298    -0.000000034   0.000000000
   0.510315117    0.883891242   0.000000000
   0.000000000   0.000000000   3.987305081
ATOMIC_POSITIONS {angstrom}
Mo       -0.0009813994   0.0049815567   0.0000000000
S       1.6283959899   0.9457019853   1.6610184241
Se       1.6283959899   0.9457019853   -1.6610184241

K_POINTS automatic
24 24 1 0 0 0
