 &control
    calculation = 'relax'
    restart_mode = 'restart'
    !restart_mode = 'from_scratch'
    wf_collect=.true.
    prefix = 'o.demo_'
    tstress = .true.
    tprnfor = .true.
    etot_conv_thr=1d-5,
    forc_conv_thr=1.d-4
    !etot_conv_thr=1d-6, 
    !forc_conv_thr=1.d-5
    pseudo_dir = './pseudo_dir/'
    outdir = '/scratch/asgouros//o.demo_/'
 /
 &system
    ibrav = 0
    nat = 3
    ntyp = 2
    ecutwfc = 80.0
    ecutrho = 320.0
    occupations = 'fixed'
 /
 &electrons
    diagonalization = 'david'
    electron_maxstep = 100
    mixing_mode = 'plain'
    mixing_beta = 0.7
    conv_thr = 1d-10
 /
 &ions
 /
ATOMIC_SPECIES
 S  32.07   S.pz-hgh.UPF
 Mo  95.94   Mo.pz-hgh.UPF
K_POINTS automatic
5 5 1 0 0 0
#24 24 1 0 0 0
CELL_PARAMETERS {angstrom}
3.1379998169999999 -0.0000031930000000 0.0000000000000000
1.5689983120000000 2.7175721400000001 0.0000000000000000
0.0000000000000000 0.0000000000000000 12.6037367814600003
ATOMIC_POSITIONS {angstrom}
Mo -0.0009452800000000 0.0047982900000000 0.0000000000000000
S 1.5680496700000000 0.9106493000000000 1.5468523100000000
S 1.5680496700000000 0.9106493000000000 -1.5468523100000000
